(set-logic UFLIA)
(declare-sort Tindex_2 0)
(declare-sort Tindex_0 0)
(declare-sort Tindex_1 0)
(declare-fun op_1 (Tindex_0) Tindex_0)
(declare-fun op_0 () Tindex_0)
(declare-fun op_3 (Tindex_2 Tindex_0) Tindex_0)
(declare-fun op_2 () Tindex_2)
(assert (not (= (op_3 op_2 (op_1 op_0)) (op_3 op_2 op_0))))
(assert (forall ( (SMTCoqRelName9 Tindex_1) ) (= (op_1 op_0) op_0)))
(check-sat)
(exit)
